1111100 AB
300 325 350 365 380 395 410 430 450 470 490 514 542 570 598 626 654 682 710 738 766 794 822 850 878 906 931 956 977 998 1019 1040 1061 1082 1103 1124 1157 1192 1227 1260 1290 1320 1350 1380 1410 0
1111100 BA
330 355 380 395 410 425 443 466 486 506 526 550 578 607 636 664 692 720 748 776 804 832 860 888 916 944 969 994 1015 1039 1064 1085 1106 1127 1148 1169 1196 1228 1262 1290 1320 1350 1380 1410 0 30
0000011 AB
300 330 360 390 420 450 480 502 524 546 579 612 648 684 710 736 762 788 814 840 866 892 930 968 1006 1032 1058 1084 1110 1136 1165 1198 1231 1264 1294 1324 1354 1384 1414 4
0000011 BA
330 360 390 420 450 480 514 536 558 580 615 650 686 722 748 774 800 826 852 878 904 930 968 1006 1044 1070 1096 1122 1148 1174 1203 1236 1266 1294 1324 1354 1384 1414 4 34
